1 10
1 17
1 16
1 4
5 2
4 2
6 2
6 3
9 3
12 3
3 4
16 4
15 4
11 4
8 4
9 4
10 4
18 5
5 7
6 5
13 5
14 5
14 6
19 6
12 6
18 7
13 7
12 9
10 16
8 11
14 13
17 16
current node:1
1  0  0  1  0  0  0  0  0  1  0  0  0  0  0  1  1  0  0  
0  0  0  1  1  1  0  0  0  0  0  0  0  0  0  0  0  0  0  
0  0  0  1  0  1  0  0  1  0  0  1  0  0  0  0  0  0  0  
1  1  1  0  0  0  0  1  1  1  1  0  0  0  1  1  0  0  0  
0  1  0  0  0  1  1  0  0  0  0  0  1  1  0  0  0  1  0  
0  1  1  0  1  0  0  0  0  0  0  1  0  1  0  0  0  0  1  
0  0  0  0  1  0  0  0  0  0  0  0  1  0  0  0  0  1  0  
0  0  0  1  0  0  0  0  0  0  1  0  0  0  0  0  0  0  0  
0  0  1  1  0  0  0  0  0  0  0  1  0  0  0  0  0  0  0  
1  0  0  1  0  0  0  0  0  0  0  0  0  0  0  1  0  0  0  
0  0  0  1  0  0  0  1  0  0  0  0  0  0  0  0  0  0  0  
0  0  1  0  0  1  0  0  1  0  0  0  0  0  0  0  0  0  0  
0  0  0  0  1  0  1  0  0  0  0  0  0  1  0  0  0  0  0  
0  0  0  0  1  1  0  0  0  0  0  0  1  0  0  0  0  0  0  
0  0  0  1  0  0  0  0  0  0  0  0  0  0  0  0  0  0  0  
1  0  0  1  0  0  0  0  0  1  0  0  0  0  0  0  1  0  0  
1  0  0  0  0  0  0  0  0  0  0  0  0  0  0  1  0  0  0  
0  0  0  0  1  0  1  0  0  0  0  0  0  0  0  0  0  0  0  
0  0  0  0  0  1  0  0  0  0  0  0  0  0  0  0  0  0  0  
current node:2
1  0  0  1  0  0  0  0  0  1  0  0  0  0  0  1  1  0  0  
0  1  0  1  1  1  0  0  0  0  0  0  0  0  0  0  0  0  0  
0  0  0  1  0  1  0  0  1  0  0  1  0  0  0  0  0  0  0  
1  1  1  0  0  0  0  1  1  1  1  0  0  0  1  1  0  0  0  
0  1  0  0  0  1  1  0  0  0  0  0  1  1  0  0  0  1  0  
0  1  1  0  1  0  0  0  0  0  0  1  0  1  0  0  0  0  1  
0  0  0  0  1  0  0  0  0  0  0  0  1  0  0  0  0  1  0  
0  0  0  1  0  0  0  0  0  0  1  0  0  0  0  0  0  0  0  
0  0  1  1  0  0  0  0  0  0  0  1  0  0  0  0  0  0  0  
1  0  0  1  0  0  0  0  0  0  0  0  0  0  0  1  0  0  0  
0  0  0  1  0  0  0  1  0  0  0  0  0  0  0  0  0  0  0  
0  0  1  0  0  1  0  0  1  0  0  0  0  0  0  0  0  0  0  
0  0  0  0  1  0  1  0  0  0  0  0  0  1  0  0  0  0  0  
0  0  0  0  1  1  0  0  0  0  0  0  1  0  0  0  0  0  0  
0  0  0  1  0  0  0  0  0  0  0  0  0  0  0  0  0  0  0  
1  0  0  1  0  0  0  0  0  1  0  0  0  0  0  0  1  0  0  
1  0  0  0  0  0  0  0  0  0  0  0  0  0  0  1  0  0  0  
0  0  0  0  1  0  1  0  0  0  0  0  0  0  0  0  0  0  0  
0  0  0  0  0  1  0  0  0  0  0  0  0  0  0  0  0  0  0  
current node:3
1  0  0  1  0  0  0  0  0  1  0  0  0  0  0  1  1  0  0  
0  1  0  1  1  1  0  0  0  0  0  0  0  0  0  0  0  0  0  
0  0  1  1  0  1  0  0  1  0  0  1  0  0  0  0  0  0  0  
1  1  1  0  0  0  0  1  1  1  1  0  0  0  1  1  0  0  0  
0  1  0  0  0  1  1  0  0  0  0  0  1  1  0  0  0  1  0  
0  1  1  0  1  0  0  0  0  0  0  1  0  1  0  0  0  0  1  
0  0  0  0  1  0  0  0  0  0  0  0  1  0  0  0  0  1  0  
0  0  0  1  0  0  0  0  0  0  1  0  0  0  0  0  0  0  0  
0  0  1  1  0  0  0  0  0  0  0  1  0  0  0  0  0  0  0  
1  0  0  1  0  0  0  0  0  0  0  0  0  0  0  1  0  0  0  
0  0  0  1  0  0  0  1  0  0  0  0  0  0  0  0  0  0  0  
0  0  1  0  0  1  0  0  1  0  0  0  0  0  0  0  0  0  0  
0  0  0  0  1  0  1  0  0  0  0  0  0  1  0  0  0  0  0  
0  0  0  0  1  1  0  0  0  0  0  0  1  0  0  0  0  0  0  
0  0  0  1  0  0  0  0  0  0  0  0  0  0  0  0  0  0  0  
1  0  0  1  0  0  0  0  0  1  0  0  0  0  0  0  1  0  0  
1  0  0  0  0  0  0  0  0  0  0  0  0  0  0  1  0  0  0  
0  0  0  0  1  0  1  0  0  0  0  0  0  0  0  0  0  0  0  
0  0  0  0  0  1  0  0  0  0  0  0  0  0  0  0  0  0  0  
current node:4
1  0  0  1  0  0  0  0  0  1  0  0  0  0  0  1  1  0  0  
0  1  0  1  1  1  0  0  0  0  0  0  0  0  0  0  0  0  0  
0  0  1  1  0  1  0  0  1  0  0  1  0  0  0  0  0  0  0  
1  1  1  2  0  0  0  1  1  1  1  0  0  0  1  1  0  0  0  
0  1  0  0  0  1  1  0  0  0  0  0  1  1  0  0  0  1  0  
0  1  1  0  1  0  0  0  0  0  0  1  0  1  0  0  0  0  1  
0  0  0  0  1  0  0  0  0  0  0  0  1  0  0  0  0  1  0  
0  0  0  1  0  0  0  0  0  0  1  0  0  0  0  0  0  0  0  
0  0  1  1  0  0  0  0  0  0  0  1  0  0  0  0  0  0  0  
1  0  0  1  0  0  0  0  0  0  0  0  0  0  0  1  0  0  0  
0  0  0  1  0  0  0  1  0  0  0  0  0  0  0  0  0  0  0  
0  0  1  0  0  1  0  0  1  0  0  0  0  0  0  0  0  0  0  
0  0  0  0  1  0  1  0  0  0  0  0  0  1  0  0  0  0  0  
0  0  0  0  1  1  0  0  0  0  0  0  1  0  0  0  0  0  0  
0  0  0  1  0  0  0  0  0  0  0  0  0  0  0  0  0  0  0  
1  0  0  1  0  0  0  0  0  1  0  0  0  0  0  0  1  0  0  
1  0  0  0  0  0  0  0  0  0  0  0  0  0  0  1  0  0  0  
0  0  0  0  1  0  1  0  0  0  0  0  0  0  0  0  0  0  0  
0  0  0  0  0  1  0  0  0  0  0  0  0  0  0  0  0  0  0  
current node:5
1  0  0  1  0  0  0  0  0  1  0  0  0  0  0  1  1  0  0  
0  1  0  1  1  1  0  0  0  0  0  0  0  0  0  0  0  0  0  
0  0  1  1  0  1  0  0  1  0  0  1  0  0  0  0  0  0  0  
1  1  1  2  0  0  0  1  1  1  1  0  0  0  1  1  0  0  0  
0  1  0  0  2  1  1  0  0  0  0  0  1  1  0  0  0  1  0  
0  1  1  0  1  0  0  0  0  0  0  1  0  1  0  0  0  0  1  
0  0  0  0  1  0  0  0  0  0  0  0  1  0  0  0  0  1  0  
0  0  0  1  0  0  0  0  0  0  1  0  0  0  0  0  0  0  0  
0  0  1  1  0  0  0  0  0  0  0  1  0  0  0  0  0  0  0  
1  0  0  1  0  0  0  0  0  0  0  0  0  0  0  1  0  0  0  
0  0  0  1  0  0  0  1  0  0  0  0  0  0  0  0  0  0  0  
0  0  1  0  0  1  0  0  1  0  0  0  0  0  0  0  0  0  0  
0  0  0  0  1  0  1  0  0  0  0  0  0  1  0  0  0  0  0  
0  0  0  0  1  1  0  0  0  0  0  0  1  0  0  0  0  0  0  
0  0  0  1  0  0  0  0  0  0  0  0  0  0  0  0  0  0  0  
1  0  0  1  0  0  0  0  0  1  0  0  0  0  0  0  1  0  0  
1  0  0  0  0  0  0  0  0  0  0  0  0  0  0  1  0  0  0  
0  0  0  0  1  0  1  0  0  0  0  0  0  0  0  0  0  0  0  
0  0  0  0  0  1  0  0  0  0  0  0  0  0  0  0  0  0  0  
current node:6
1  0  0  1  0  0  0  0  0  1  0  0  0  0  0  1  1  0  0  
0  1  0  1  1  1  0  0  0  0  0  0  0  0  0  0  0  0  0  
0  0  1  1  0  1  0  0  1  0  0  1  0  0  0  0  0  0  0  
1  1  1  2  0  0  0  1  1  1  1  0  0  0  1  1  0  0  0  
0  1  0  0  2  1  1  0  0  0  0  0  1  1  0  0  0  1  0  
0  1  1  0  1  3  0  0  0  0  0  1  0  1  0  0  0  0  1  
0  0  0  0  1  0  0  0  0  0  0  0  1  0  0  0  0  1  0  
0  0  0  1  0  0  0  0  0  0  1  0  0  0  0  0  0  0  0  
0  0  1  1  0  0  0  0  0  0  0  1  0  0  0  0  0  0  0  
1  0  0  1  0  0  0  0  0  0  0  0  0  0  0  1  0  0  0  
0  0  0  1  0  0  0  1  0  0  0  0  0  0  0  0  0  0  0  
0  0  1  0  0  1  0  0  1  0  0  0  0  0  0  0  0  0  0  
0  0  0  0  1  0  1  0  0  0  0  0  0  1  0  0  0  0  0  
0  0  0  0  1  1  0  0  0  0  0  0  1  0  0  0  0  0  0  
0  0  0  1  0  0  0  0  0  0  0  0  0  0  0  0  0  0  0  
1  0  0  1  0  0  0  0  0  1  0  0  0  0  0  0  1  0  0  
1  0  0  0  0  0  0  0  0  0  0  0  0  0  0  1  0  0  0  
0  0  0  0  1  0  1  0  0  0  0  0  0  0  0  0  0  0  0  
0  0  0  0  0  1  0  0  0  0  0  0  0  0  0  0  0  0  0  
current node:7
1  0  0  1  0  0  0  0  0  1  0  0  0  0  0  1  1  0  0  
0  1  0  1  1  1  0  0  0  0  0  0  0  0  0  0  0  0  0  
0  0  1  1  0  1  0  0  1  0  0  1  0  0  0  0  0  0  0  
1  1  1  2  0  0  0  1  1  1  1  0  0  0  1  1  0  0  0  
0  1  0  0  2  1  1  0  0  0  0  0  1  1  0  0  0  1  0  
0  1  1  0  1  3  0  0  0  0  0  1  0  1  0  0  0  0  1  
0  0  0  0  1  0  1  0  0  0  0  0  1  0  0  0  0  1  0  
0  0  0  1  0  0  0  0  0  0  1  0  0  0  0  0  0  0  0  
0  0  1  1  0  0  0  0  0  0  0  1  0  0  0  0  0  0  0  
1  0  0  1  0  0  0  0  0  0  0  0  0  0  0  1  0  0  0  
0  0  0  1  0  0  0  1  0  0  0  0  0  0  0  0  0  0  0  
0  0  1  0  0  1  0  0  1  0  0  0  0  0  0  0  0  0  0  
0  0  0  0  1  0  1  0  0  0  0  0  0  1  0  0  0  0  0  
0  0  0  0  1  1  0  0  0  0  0  0  1  0  0  0  0  0  0  
0  0  0  1  0  0  0  0  0  0  0  0  0  0  0  0  0  0  0  
1  0  0  1  0  0  0  0  0  1  0  0  0  0  0  0  1  0  0  
1  0  0  0  0  0  0  0  0  0  0  0  0  0  0  1  0  0  0  
0  0  0  0  1  0  1  0  0  0  0  0  0  0  0  0  0  0  0  
0  0  0  0  0  1  0  0  0  0  0  0  0  0  0  0  0  0  0  
current node:8
1  0  0  1  0  0  0  0  0  1  0  0  0  0  0  1  1  0  0  
0  1  0  1  1  1  0  0  0  0  0  0  0  0  0  0  0  0  0  
0  0  1  1  0  1  0  0  1  0  0  1  0  0  0  0  0  0  0  
1  1  1  2  0  0  0  1  1  1  1  0  0  0  1  1  0  0  0  
0  1  0  0  2  1  1  0  0  0  0  0  1  1  0  0  0  1  0  
0  1  1  0  1  3  0  0  0  0  0  1  0  1  0  0  0  0  1  
0  0  0  0  1  0  1  0  0  0  0  0  1  0  0  0  0  1  0  
0  0  0  1  0  0  0  1  0  0  1  0  0  0  0  0  0  0  0  
0  0  1  1  0  0  0  0  0  0  0  1  0  0  0  0  0  0  0  
1  0  0  1  0  0  0  0  0  0  0  0  0  0  0  1  0  0  0  
0  0  0  1  0  0  0  1  0  0  0  0  0  0  0  0  0  0  0  
0  0  1  0  0  1  0  0  1  0  0  0  0  0  0  0  0  0  0  
0  0  0  0  1  0  1  0  0  0  0  0  0  1  0  0  0  0  0  
0  0  0  0  1  1  0  0  0  0  0  0  1  0  0  0  0  0  0  
0  0  0  1  0  0  0  0  0  0  0  0  0  0  0  0  0  0  0  
1  0  0  1  0  0  0  0  0  1  0  0  0  0  0  0  1  0  0  
1  0  0  0  0  0  0  0  0  0  0  0  0  0  0  1  0  0  0  
0  0  0  0  1  0  1  0  0  0  0  0  0  0  0  0  0  0  0  
0  0  0  0  0  1  0  0  0  0  0  0  0  0  0  0  0  0  0  
current node:9
1  0  0  1  0  0  0  0  0  1  0  0  0  0  0  1  1  0  0  
0  1  0  1  1  1  0  0  0  0  0  0  0  0  0  0  0  0  0  
0  0  1  1  0  1  0  0  1  0  0  1  0  0  0  0  0  0  0  
1  1  1  2  0  0  0  1  1  1  1  0  0  0  1  1  0  0  0  
0  1  0  0  2  1  1  0  0  0  0  0  1  1  0  0  0  1  0  
0  1  1  0  1  3  0  0  0  0  0  1  0  1  0  0  0  0  1  
0  0  0  0  1  0  1  0  0  0  0  0  1  0  0  0  0  1  0  
0  0  0  1  0  0  0  1  0  0  1  0  0  0  0  0  0  0  0  
0  0  1  1  0  0  0  0  3  0  0  1  0  0  0  0  0  0  0  
1  0  0  1  0  0  0  0  0  0  0  0  0  0  0  1  0  0  0  
0  0  0  1  0  0  0  1  0  0  0  0  0  0  0  0  0  0  0  
0  0  1  0  0  1  0  0  1  0  0  0  0  0  0  0  0  0  0  
0  0  0  0  1  0  1  0  0  0  0  0  0  1  0  0  0  0  0  
0  0  0  0  1  1  0  0  0  0  0  0  1  0  0  0  0  0  0  
0  0  0  1  0  0  0  0  0  0  0  0  0  0  0  0  0  0  0  
1  0  0  1  0  0  0  0  0  1  0  0  0  0  0  0  1  0  0  
1  0  0  0  0  0  0  0  0  0  0  0  0  0  0  1  0  0  0  
0  0  0  0  1  0  1  0  0  0  0  0  0  0  0  0  0  0  0  
0  0  0  0  0  1  0  0  0  0  0  0  0  0  0  0  0  0  0  
current node:10
1  0  0  1  0  0  0  0  0  1  0  0  0  0  0  1  1  0  0  
0  1  0  1  1  1  0  0  0  0  0  0  0  0  0  0  0  0  0  
0  0  1  1  0  1  0  0  1  0  0  1  0  0  0  0  0  0  0  
1  1  1  2  0  0  0  1  1  1  1  0  0  0  1  1  0  0  0  
0  1  0  0  2  1  1  0  0  0  0  0  1  1  0  0  0  1  0  
0  1  1  0  1  3  0  0  0  0  0  1  0  1  0  0  0  0  1  
0  0  0  0  1  0  1  0  0  0  0  0  1  0  0  0  0  1  0  
0  0  0  1  0  0  0  1  0  0  1  0  0  0  0  0  0  0  0  
0  0  1  1  0  0  0  0  3  0  0  1  0  0  0  0  0  0  0  
1  0  0  1  0  0  0  0  0  3  0  0  0  0  0  1  0  0  0  
0  0  0  1  0  0  0  1  0  0  0  0  0  0  0  0  0  0  0  
0  0  1  0  0  1  0  0  1  0  0  0  0  0  0  0  0  0  0  
0  0  0  0  1  0  1  0  0  0  0  0  0  1  0  0  0  0  0  
0  0  0  0  1  1  0  0  0  0  0  0  1  0  0  0  0  0  0  
0  0  0  1  0  0  0  0  0  0  0  0  0  0  0  0  0  0  0  
1  0  0  1  0  0  0  0  0  1  0  0  0  0  0  0  1  0  0  
1  0  0  0  0  0  0  0  0  0  0  0  0  0  0  1  0  0  0  
0  0  0  0  1  0  1  0  0  0  0  0  0  0  0  0  0  0  0  
0  0  0  0  0  1  0  0  0  0  0  0  0  0  0  0  0  0  0  
current node:11
1  0  0  1  0  0  0  0  0  1  0  0  0  0  0  1  1  0  0  
0  1  0  1  1  1  0  0  0  0  0  0  0  0  0  0  0  0  0  
0  0  1  1  0  1  0  0  1  0  0  1  0  0  0  0  0  0  0  
1  1  1  2  0  0  0  1  1  1  1  0  0  0  1  1  0  0  0  
0  1  0  0  2  1  1  0  0  0  0  0  1  1  0  0  0  1  0  
0  1  1  0  1  3  0  0  0  0  0  1  0  1  0  0  0  0  1  
0  0  0  0  1  0  1  0  0  0  0  0  1  0  0  0  0  1  0  
0  0  0  1  0  0  0  1  0  0  1  0  0  0  0  0  0  0  0  
0  0  1  1  0  0  0  0  3  0  0  1  0  0  0  0  0  0  0  
1  0  0  1  0  0  0  0  0  3  0  0  0  0  0  1  0  0  0  
0  0  0  1  0  0  0  1  0  0  3  0  0  0  0  0  0  0  0  
0  0  1  0  0  1  0  0  1  0  0  0  0  0  0  0  0  0  0  
0  0  0  0  1  0  1  0  0  0  0  0  0  1  0  0  0  0  0  
0  0  0  0  1  1  0  0  0  0  0  0  1  0  0  0  0  0  0  
0  0  0  1  0  0  0  0  0  0  0  0  0  0  0  0  0  0  0  
1  0  0  1  0  0  0  0  0  1  0  0  0  0  0  0  1  0  0  
1  0  0  0  0  0  0  0  0  0  0  0  0  0  0  1  0  0  0  
0  0  0  0  1  0  1  0  0  0  0  0  0  0  0  0  0  0  0  
0  0  0  0  0  1  0  0  0  0  0  0  0  0  0  0  0  0  0  
current node:12
1  0  0  1  0  0  0  0  0  1  0  0  0  0  0  1  1  0  0  
0  1  0  1  1  1  0  0  0  0  0  0  0  0  0  0  0  0  0  
0  0  1  1  0  1  0  0  1  0  0  1  0  0  0  0  0  0  0  
1  1  1  2  0  0  0  1  1  1  1  0  0  0  1  1  0  0  0  
0  1  0  0  2  1  1  0  0  0  0  0  1  1  0  0  0  1  0  
0  1  1  0  1  3  0  0  0  0  0  1  0  1  0  0  0  0  1  
0  0  0  0  1  0  1  0  0  0  0  0  1  0  0  0  0  1  0  
0  0  0  1  0  0  0  1  0  0  1  0  0  0  0  0  0  0  0  
0  0  1  1  0  0  0  0  3  0  0  1  0  0  0  0  0  0  0  
1  0  0  1  0  0  0  0  0  3  0  0  0  0  0  1  0  0  0  
0  0  0  1  0  0  0  1  0  0  3  0  0  0  0  0  0  0  0  
0  0  1  0  0  1  0  0  1  0  0  2  0  0  0  0  0  0  0  
0  0  0  0  1  0  1  0  0  0  0  0  0  1  0  0  0  0  0  
0  0  0  0  1  1  0  0  0  0  0  0  1  0  0  0  0  0  0  
0  0  0  1  0  0  0  0  0  0  0  0  0  0  0  0  0  0  0  
1  0  0  1  0  0  0  0  0  1  0  0  0  0  0  0  1  0  0  
1  0  0  0  0  0  0  0  0  0  0  0  0  0  0  1  0  0  0  
0  0  0  0  1  0  1  0  0  0  0  0  0  0  0  0  0  0  0  
0  0  0  0  0  1  0  0  0  0  0  0  0  0  0  0  0  0  0  
current node:13
1  0  0  1  0  0  0  0  0  1  0  0  0  0  0  1  1  0  0  
0  1  0  1  1  1  0  0  0  0  0  0  0  0  0  0  0  0  0  
0  0  1  1  0  1  0  0  1  0  0  1  0  0  0  0  0  0  0  
1  1  1  2  0  0  0  1  1  1  1  0  0  0  1  1  0  0  0  
0  1  0  0  2  1  1  0  0  0  0  0  1  1  0  0  0  1  0  
0  1  1  0  1  3  0  0  0  0  0  1  0  1  0  0  0  0  1  
0  0  0  0  1  0  1  0  0  0  0  0  1  0  0  0  0  1  0  
0  0  0  1  0  0  0  1  0  0  1  0  0  0  0  0  0  0  0  
0  0  1  1  0  0  0  0  3  0  0  1  0  0  0  0  0  0  0  
1  0  0  1  0  0  0  0  0  3  0  0  0  0  0  1  0  0  0  
0  0  0  1  0  0  0  1  0  0  3  0  0  0  0  0  0  0  0  
0  0  1  0  0  1  0  0  1  0  0  2  0  0  0  0  0  0  0  
0  0  0  0  1  0  1  0  0  0  0  0  3  1  0  0  0  0  0  
0  0  0  0  1  1  0  0  0  0  0  0  1  0  0  0  0  0  0  
0  0  0  1  0  0  0  0  0  0  0  0  0  0  0  0  0  0  0  
1  0  0  1  0  0  0  0  0  1  0  0  0  0  0  0  1  0  0  
1  0  0  0  0  0  0  0  0  0  0  0  0  0  0  1  0  0  0  
0  0  0  0  1  0  1  0  0  0  0  0  0  0  0  0  0  0  0  
0  0  0  0  0  1  0  0  0  0  0  0  0  0  0  0  0  0  0  
current node:14
1  0  0  1  0  0  0  0  0  1  0  0  0  0  0  1  1  0  0  
0  1  0  1  1  1  0  0  0  0  0  0  0  0  0  0  0  0  0  
0  0  1  1  0  1  0  0  1  0  0  1  0  0  0  0  0  0  0  
1  1  1  2  0  0  0  1  1  1  1  0  0  0  1  1  0  0  0  
0  1  0  0  2  1  1  0  0  0  0  0  1  1  0  0  0  1  0  
0  1  1  0  1  3  0  0  0  0  0  1  0  1  0  0  0  0  1  
0  0  0  0  1  0  1  0  0  0  0  0  1  0  0  0  0  1  0  
0  0  0  1  0  0  0  1  0  0  1  0  0  0  0  0  0  0  0  
0  0  1  1  0  0  0  0  3  0  0  1  0  0  0  0  0  0  0  
1  0  0  1  0  0  0  0  0  3  0  0  0  0  0  1  0  0  0  
0  0  0  1  0  0  0  1  0  0  3  0  0  0  0  0  0  0  0  
0  0  1  0  0  1  0  0  1  0  0  2  0  0  0  0  0  0  0  
0  0  0  0  1  0  1  0  0  0  0  0  3  1  0  0  0  0  0  
0  0  0  0  1  1  0  0  0  0  0  0  1  1  0  0  0  0  0  
0  0  0  1  0  0  0  0  0  0  0  0  0  0  0  0  0  0  0  
1  0  0  1  0  0  0  0  0  1  0  0  0  0  0  0  1  0  0  
1  0  0  0  0  0  0  0  0  0  0  0  0  0  0  1  0  0  0  
0  0  0  0  1  0  1  0  0  0  0  0  0  0  0  0  0  0  0  
0  0  0  0  0  1  0  0  0  0  0  0  0  0  0  0  0  0  0  
current node:15
1  0  0  1  0  0  0  0  0  1  0  0  0  0  0  1  1  0  0  
0  1  0  1  1  1  0  0  0  0  0  0  0  0  0  0  0  0  0  
0  0  1  1  0  1  0  0  1  0  0  1  0  0  0  0  0  0  0  
1  1  1  2  0  0  0  1  1  1  1  0  0  0  1  1  0  0  0  
0  1  0  0  2  1  1  0  0  0  0  0  1  1  0  0  0  1  0  
0  1  1  0  1  3  0  0  0  0  0  1  0  1  0  0  0  0  1  
0  0  0  0  1  0  1  0  0  0  0  0  1  0  0  0  0  1  0  
0  0  0  1  0  0  0  1  0  0  1  0  0  0  0  0  0  0  0  
0  0  1  1  0  0  0  0  3  0  0  1  0  0  0  0  0  0  0  
1  0  0  1  0  0  0  0  0  3  0  0  0  0  0  1  0  0  0  
0  0  0  1  0  0  0  1  0  0  3  0  0  0  0  0  0  0  0  
0  0  1  0  0  1  0  0  1  0  0  2  0  0  0  0  0  0  0  
0  0  0  0  1  0  1  0  0  0  0  0  3  1  0  0  0  0  0  
0  0  0  0  1  1  0  0  0  0  0  0  1  1  0  0  0  0  0  
0  0  0  1  0  0  0  0  0  0  0  0  0  0  1  0  0  0  0  
1  0  0  1  0  0  0  0  0  1  0  0  0  0  0  0  1  0  0  
1  0  0  0  0  0  0  0  0  0  0  0  0  0  0  1  0  0  0  
0  0  0  0  1  0  1  0  0  0  0  0  0  0  0  0  0  0  0  
0  0  0  0  0  1  0  0  0  0  0  0  0  0  0  0  0  0  0  
current node:16
1  0  0  1  0  0  0  0  0  1  0  0  0  0  0  1  1  0  0  
0  1  0  1  1  1  0  0  0  0  0  0  0  0  0  0  0  0  0  
0  0  1  1  0  1  0  0  1  0  0  1  0  0  0  0  0  0  0  
1  1  1  2  0  0  0  1  1  1  1  0  0  0  1  1  0  0  0  
0  1  0  0  2  1  1  0  0  0  0  0  1  1  0  0  0  1  0  
0  1  1  0  1  3  0  0  0  0  0  1  0  1  0  0  0  0  1  
0  0  0  0  1  0  1  0  0  0  0  0  1  0  0  0  0  1  0  
0  0  0  1  0  0  0  1  0  0  1  0  0  0  0  0  0  0  0  
0  0  1  1  0  0  0  0  3  0  0  1  0  0  0  0  0  0  0  
1  0  0  1  0  0  0  0  0  3  0  0  0  0  0  1  0  0  0  
0  0  0  1  0  0  0  1  0  0  3  0  0  0  0  0  0  0  0  
0  0  1  0  0  1  0  0  1  0  0  2  0  0  0  0  0  0  0  
0  0  0  0  1  0  1  0  0  0  0  0  3  1  0  0  0  0  0  
0  0  0  0  1  1  0  0  0  0  0  0  1  1  0  0  0  0  0  
0  0  0  1  0  0  0  0  0  0  0  0  0  0  1  0  0  0  0  
1  0  0  1  0  0  0  0  0  1  0  0  0  0  0  4  1  0  0  
1  0  0  0  0  0  0  0  0  0  0  0  0  0  0  1  0  0  0  
0  0  0  0  1  0  1  0  0  0  0  0  0  0  0  0  0  0  0  
0  0  0  0  0  1  0  0  0  0  0  0  0  0  0  0  0  0  0  
current node:17
1  0  0  1  0  0  0  0  0  1  0  0  0  0  0  1  1  0  0  
0  1  0  1  1  1  0  0  0  0  0  0  0  0  0  0  0  0  0  
0  0  1  1  0  1  0  0  1  0  0  1  0  0  0  0  0  0  0  
1  1  1  2  0  0  0  1  1  1  1  0  0  0  1  1  0  0  0  
0  1  0  0  2  1  1  0  0  0  0  0  1  1  0  0  0  1  0  
0  1  1  0  1  3  0  0  0  0  0  1  0  1  0  0  0  0  1  
0  0  0  0  1  0  1  0  0  0  0  0  1  0  0  0  0  1  0  
0  0  0  1  0  0  0  1  0  0  1  0  0  0  0  0  0  0  0  
0  0  1  1  0  0  0  0  3  0  0  1  0  0  0  0  0  0  0  
1  0  0  1  0  0  0  0  0  3  0  0  0  0  0  1  0  0  0  
0  0  0  1  0  0  0  1  0  0  3  0  0  0  0  0  0  0  0  
0  0  1  0  0  1  0  0  1  0  0  2  0  0  0  0  0  0  0  
0  0  0  0  1  0  1  0  0  0  0  0  3  1  0  0  0  0  0  
0  0  0  0  1  1  0  0  0  0  0  0  1  1  0  0  0  0  0  
0  0  0  1  0  0  0  0  0  0  0  0  0  0  1  0  0  0  0  
1  0  0  1  0  0  0  0  0  1  0  0  0  0  0  4  1  0  0  
1  0  0  0  0  0  0  0  0  0  0  0  0  0  0  1  2  0  0  
0  0  0  0  1  0  1  0  0  0  0  0  0  0  0  0  0  0  0  
0  0  0  0  0  1  0  0  0  0  0  0  0  0  0  0  0  0  0  
current node:18
1  0  0  1  0  0  0  0  0  1  0  0  0  0  0  1  1  0  0  
0  1  0  1  1  1  0  0  0  0  0  0  0  0  0  0  0  0  0  
0  0  1  1  0  1  0  0  1  0  0  1  0  0  0  0  0  0  0  
1  1  1  2  0  0  0  1  1  1  1  0  0  0  1  1  0  0  0  
0  1  0  0  2  1  1  0  0  0  0  0  1  1  0  0  0  1  0  
0  1  1  0  1  3  0  0  0  0  0  1  0  1  0  0  0  0  1  
0  0  0  0  1  0  1  0  0  0  0  0  1  0  0  0  0  1  0  
0  0  0  1  0  0  0  1  0  0  1  0  0  0  0  0  0  0  0  
0  0  1  1  0  0  0  0  3  0  0  1  0  0  0  0  0  0  0  
1  0  0  1  0  0  0  0  0  3  0  0  0  0  0  1  0  0  0  
0  0  0  1  0  0  0  1  0  0  3  0  0  0  0  0  0  0  0  
0  0  1  0  0  1  0  0  1  0  0  2  0  0  0  0  0  0  0  
0  0  0  0  1  0  1  0  0  0  0  0  3  1  0  0  0  0  0  
0  0  0  0  1  1  0  0  0  0  0  0  1  1  0  0  0  0  0  
0  0  0  1  0  0  0  0  0  0  0  0  0  0  1  0  0  0  0  
1  0  0  1  0  0  0  0  0  1  0  0  0  0  0  4  1  0  0  
1  0  0  0  0  0  0  0  0  0  0  0  0  0  0  1  2  0  0  
0  0  0  0  1  0  1  0  0  0  0  0  0  0  0  0  0  3  0  
0  0  0  0  0  1  0  0  0  0  0  0  0  0  0  0  0  0  0  
current node:19
1  0  0  1  0  0  0  0  0  1  0  0  0  0  0  1  1  0  0  
0  1  0  1  1  1  0  0  0  0  0  0  0  0  0  0  0  0  0  
0  0  1  1  0  1  0  0  1  0  0  1  0  0  0  0  0  0  0  
1  1  1  2  0  0  0  1  1  1  1  0  0  0  1  1  0  0  0  
0  1  0  0  2  1  1  0  0  0  0  0  1  1  0  0  0  1  0  
0  1  1  0  1  3  0  0  0  0  0  1  0  1  0  0  0  0  1  
0  0  0  0  1  0  1  0  0  0  0  0  1  0  0  0  0  1  0  
0  0  0  1  0  0  0  1  0  0  1  0  0  0  0  0  0  0  0  
0  0  1  1  0  0  0  0  3  0  0  1  0  0  0  0  0  0  0  
1  0  0  1  0  0  0  0  0  3  0  0  0  0  0  1  0  0  0  
0  0  0  1  0  0  0  1  0  0  3  0  0  0  0  0  0  0  0  
0  0  1  0  0  1  0  0  1  0  0  2  0  0  0  0  0  0  0  
0  0  0  0  1  0  1  0  0  0  0  0  3  1  0  0  0  0  0  
0  0  0  0  1  1  0  0  0  0  0  0  1  1  0  0  0  0  0  
0  0  0  1  0  0  0  0  0  0  0  0  0  0  1  0  0  0  0  
1  0  0  1  0  0  0  0  0  1  0  0  0  0  0  4  1  0  0  
1  0  0  0  0  0  0  0  0  0  0  0  0  0  0  1  2  0  0  
0  0  0  0  1  0  1  0  0  0  0  0  0  0  0  0  0  3  0  
0  0  0  0  0  1  0  0  0  0  0  0  0  0  0  0  0  0  1  

Number of colors used to color:4
